c ---- [ banner ] ------------------------------------------------------------
c
c Kissat SAT Solver
c 
c Copyright (c) 2021-2023 Armin Biere University of Freiburg
c Copyright (c) 2019-2021 Armin Biere Johannes Kepler University Linz
c 
c Version 3.1.1 unknown
c gcc (Ubuntu 9.4.0-1ubuntu1~20.04.2) 9.4.0 -W -Wall -O3 -DNDEBUG
c Mon Feb 26 18:18:52 CET 2024 Linux OptiPlex-7080 5.15.0-88-generic x86_64
c
c ---- [ parsing ] -----------------------------------------------------------
c
c opened and reading DIMACS file:
c
c   /home/oliveras/SAT-comp-2023//112b0ac22b2a567cd3badfed3a5497fd-mchess16-mixed-35percent-blocked.cnf
c
c parsed 'p cnf 16278 988' header
c closing input after reading 15494 bytes (15 KB)
c finished parsing after 0.00 seconds
c
c ---- [ options ] -----------------------------------------------------------
c
c --seed=1                         (different from default '0')
c
c ---- [ solving ] -----------------------------------------------------------
c
c  seconds switched conflicts irredundant variables
c         MB reductions redundant   trail  remaining
c          level restarts   binary     glue
c
c *  0.00  2 0 0 0  0   0   0 866 122 0% 0 626 4%
c {  0.00  2 0 0 0  0   0   0 866 122 0% 0 626 4%
c i  0.00  2 46 0 0  3  64  62 866 122 78% 4 625 4%
c u  0.02  2 64 0 0 193 899 844 879 122 68% 5 625 4%
c v  0.02  3 64 0 0 193 899 844 879 122 68% 5 625 4%
c -  0.03  3 63 0 1 228 1000 814 878 122 67% 5 625 4%
c }  0.03  3 63 1 1 228 1000 814 878 122 67% 5 625 4%
c [  0.03  3 0 1 1 228 1000 814 878 122 0% 0 625 4%
c B  0.03  3 72 1 1 228 1002 816 878 122 78% 4 625 4%
c u  0.04  3 71 1 1 228 1801 1582 881 122 64% 12 625 4%
c v  0.05  3 71 1 1 228 1801 1582 881 122 64% 12 625 4%
c -  0.05  3 70 1 2 228 2000 1225 881 122 60% 13 625 4%
c W  0.06  3 70 1 2 228 2003 1228 881 122 60% 13 625 4%
c ]  0.06  3 72 2 2 229 2604 1814 882 122 64% 12 625 4%
c {  0.06  3 63 2 2 229 2604 1814 882 122 67% 5 625 4%
c -  0.08  3 45 2 3 260 3415 1893 889 122 63% 5 625 4%
c }  0.08  3 42 3 3 270 3605 2082 889 122 61% 5 625 4%
c [  0.08  3 72 3 3 270 3605 2082 889 122 64% 12 625 4%
c u  0.09  3 70 3 3 270 3680 2152 891 122 64% 12 625 4%
c v  0.10  3 70 3 3 270 3680 2152 891 122 64% 12 625 4%
c
c  seconds  switched conflicts    irredundant variables
c         MB reductions   redundant      trail   remaining
c          level restarts       binary       glue
c
c t  0.10  3 70 3 3 270 3680 2152 890 122 64% 12 625 4%
c I  0.11  3 67 3 3 270 4262 2728 890 122 59% 14 625 4%
c e  0.12  3 68 3 3 270 4497 2951 421 351 57% 14 332 2%
c s  0.12  3 68 3 3 270 4497 2951 423 328 57% 14 332 2%
c e  0.12  3 68 3 3 270 4497 2951 400 345 57% 14 321 2%
c ^  0.12  3 68 3 3 270 4497 2951 400 345 57% 14 321 2%
c -  0.12  3 66 3 4 271 5147 1081 400 345 56% 14 321 2%
c ]  0.13  3 64 4 4 271 5581 1496 401 345 56% 14 321 2%
c {  0.13  3 42 4 4 271 5581 1496 401 345 61% 5 321 2%
c u  0.16  3 43 4 4 665 6605 2496 404 345 59% 5 321 2%
c v  0.16  3 43 4 4 665 6605 2496 404 345 59% 5 321 2%
c w  0.17  3 43 4 4 665 6605 2504 406 335 59% 5 321 2%
c t  0.17  3 43 4 4 665 6605 2504 404 335 59% 5 321 2%
c -  0.18  3 44 4 5 832 7147 2282 404 335 60% 5 321 2%
c }  0.20  3 44 5 5 1031 7933 3047 405 335 60% 6 321 2%
c [  0.20  3 64 5 5 1031 7933 3047 405 335 56% 14 321 2%
c B  0.20  3 64 5 5 1031 8035 3144 405 335 55% 14 321 2%
c s  0.21  3 61 5 5 1031 8642 3717 405 333 54% 14 321 2%
c e  0.21  3 61 5 5 1031 8642 3717 369 380 54% 14 301 2%
c s  0.21  3 61 5 5 1031 8642 3717 369 364 54% 14 301 2%
c
c  seconds  switched  conflicts    irredundant variables
c         MB reductions    redundant      trail   remaining
c          level  restarts       binary       glue
c
c e  0.21  3 61 5 5 1031 8642 3717 366 368 54% 14 300 2%
c ^  0.21  3 61 5 5 1031 8642 3717 366 368 54% 14 300 2%
c -  0.22  3 59 5 6 1032 9383 2519 366 368 54% 14 300 2%
c u  0.23  3 55 5 6 1033 10283 3364 366 368 52% 14 300 2%
c v  0.25  3 55 5 6 1033 10283 3364 366 368 52% 14 300 2%
c w  0.25  3 55 5 6 1033 10283 3368 366 364 52% 14 300 2%
c -  0.27  3 51 5 7 1033 11832 2850 366 364 51% 14 300 2%
c ]  0.29  4 49 6 7 1034 13108 4030 367 364 50% 14 300 2%
c {  0.29  4 44 6 7 1034 13108 4030 367 364 60% 6 300 2%
c -  0.32  4 46 6 8 1399 14477 3306 367 364 57% 6 300 2%
c u  0.34  4 46 6 8 1537 15000 3798 367 364 56% 7 300 2%
c v  0.35  4 46 6 8 1537 15000 3798 367 364 56% 7 300 2%
c w  0.35  4 46 6 8 1537 15000 3802 367 360 56% 7 300 2%
c }  0.42  4 47 7 8 2101 17177 5834 367 360 54% 8 300 2%
c [  0.42  4 49 7 8 2101 17177 5834 367 360 50% 14 300 2%
c W  0.43  4 49 7 8 2101 17177 5834 367 360 50% 14 300 2%
c -  0.43  4 49 7 9 2101 17305 4021 367 360 50% 14 300 2%
c e  0.43  4 50 7 9 2101 17582 4295 321 445 50% 15 279 2%
c s  0.43  4 50 7 9 2101 17582 4295 321 426 50% 15 279 2%
c e  0.44  4 50 7 9 2101 17582 4295 305 461 50% 15 268 2%
c
c  seconds  switched   conflicts    irredundant variables
c         MB reductions     redundant      trail   remaining
c          level  restarts        binary       glue
c
c ^  0.44  4 50 7 9 2101 17582 4295 305 461 50% 15 268 2%
c -  0.47  4 46 7 10 2103 20306 3108 305 461 48% 16 268 2%
c u  0.48  4 46 7 10 2103 20796 3578 305 461 48% 16 268 2%
c v  0.48  4 46 7 10 2103 20796 3578 305 461 48% 16 268 2%
c w  0.48  4 46 7 10 2103 20796 3596 307 441 48% 16 268 2%
c t  0.49  4 46 7 10 2103 20796 3596 305 441 48% 16 268 2%
c -  0.51  4 42 7 11 2105 23468 3303 305 441 46% 15 268 2%
c O  0.53  4 42 7 11 2106 24705 4429 305 441 46% 15 268 2%
c -  0.55  3 39 7 12 2107 26786 3799 305 441 45% 15 268 2%
c u  0.57  3 38 7 12 2107 27772 4747 305 441 44% 15 268 2%
c v  0.57  4 38 7 12 2107 27772 4747 305 441 44% 15 268 2%
c w  0.57  4 38 7 12 2107 27772 4751 305 437 44% 15 268 2%
c ]  0.60  4 37 8 12 2107 29879 6746 305 437 44% 15 268 2%
c {  0.60  4 47 8 12 2107 29879 6746 305 437 54% 8 268 2%
c -  0.60  4 47 8 13 2121 30250 4157 305 437 54% 8 268 2%
c s  0.63  4 45 8 13 2196 32163 5978 305 436 56% 8 268 2%
c e  0.63  4 45 8 13 2196 32163 5978 248 570 56% 8 243 1%
c s  0.63  4 45 8 13 2196 32163 5978 248 536 56% 8 243 1%
c e  0.63  4 45 8 13 2196 32163 5978 241 553 56% 8 238 1%
c ^  0.63  4 45 8 13 2196 32163 5978 241 553 56% 8 238 1%
c
c  seconds  switched    conflicts    irredundant variables
c         MB  reductions     redundant      trail  remaining
c          level   restarts        binary      glue
c
c -  0.65  4 44 8 14 2221 33857 3861 242 553 57% 7 238 1%
c u  0.68  4 43 8 14 2275 35912 5858 242 553 59% 7 238 1%
c v  0.68  4 43 8 14 2275 35912 5858 242 553 59% 7 238 1%
c w  0.69  4 43 8 14 2275 35912 5862 245 546 59% 7 238 1%
c t  0.69  4 43 8 14 2275 35912 5862 242 546 59% 7 238 1%
c }  0.69  4 43 9 14 2279 36039 5987 242 546 60% 7 238 1%
c [  0.69  4 37 9 14 2279 36039 5987 242 546 44% 15 238 1%
c B  0.69  4 37 9 14 2279 36039 5987 242 546 44% 15 238 1%
c -  0.71  4 36 9 15 2280 37599 5308 242 546 44% 14 238 1%
c -  0.75  4 35 9 16 2283 41472 5834 242 546 44% 14 238 1%
c ]  0.76  4 35 10 16 2283 42070 6416 242 546 44% 14 238 1%
c {  0.76  4 43 10 16 2283 42070 6416 242 546 60% 7 238 1%
c u  0.82  4 41 10 16 2462 45420 9664 242 546 61% 7 238 1%
c v  0.83  4 41 10 16 2462 45420 9664 242 546 61% 7 238 1%
c w  0.84  4 41 10 16 2462 45420 9670 242 540 61% 7 238 1%
c -  0.84  4 41 10 17 2465 45474 6859 242 540 61% 7 238 1%
c -  0.91  4 39 10 18 2685 49599 7894 243 540 60% 7 238 1%
c }  0.93  4 39 11 18 2777 50698 8945 243 540 60% 7 238 1%
c [  0.93  4 35 11 18 2777 50698 8945 243 540 44% 14 238 1%
c W  0.93  4 35 11 18 2777 50698 8945 243 540 44% 14 238 1%
c
c  seconds   switched    conflicts     irredundant variables
c         MB   reductions      redundant      trail   remaining
c          level    restarts         binary       glue
c
c e  0.97  4 34 11 18 2779 53104 11230 199 704 44% 13 218 1%
c s  0.97  4 34 11 18 2779 53104 11230 199 655 44% 13 218 1%
c e  0.97  4 34 11 18 2779 53104 11230 198 666 44% 13 215 1%
c ^  0.97  4 34 11 18 2779 53104 11230 198 666 44% 13 215 1%
c -  0.98  4 34 11 19 2779 53841 5887 198 666 44% 13 215 1%
c u  1.02  4 33 11 19 2781 56159 8009 198 666 44% 13 215 1%
c v  1.02  4 33 11 19 2781 56159 8009 198 666 44% 13 215 1%
c w  1.03  4 33 11 19 2781 56159 8032 199 642 44% 13 215 1%
c t  1.03  4 33 11 19 2781 56159 8032 198 642 44% 13 215 1%
c -  1.06  4 32 11 20 2782 58200 6470 198 642 43% 13 215 1%
c ]  1.11  4 31 12 20 2783 62469 10414 198 642 43% 13 215 1%
c {  1.11  4 39 12 20 2783 62469 10414 198 642 60% 7 215 1%
c -  1.11  4 39 12 21 2812 62673 6993 198 642 60% 7 215 1%
c -  1.18  4 37 12 22 2923 67255 8574 198 642 61% 7 215 1%
c u  1.21  4 36 12 22 2959 68440 9685 198 642 60% 7 215 1%
c v  1.22  4 36 12 22 2959 68440 9685 198 642 60% 7 215 1%
c w  1.22  4 36 12 22 2959 68440 9690 198 637 60% 7 215 1%
c -  1.30  4 35 12 23 3223 71945 10137 198 637 60% 7 215 1%
c }  1.34  4 34 13 23 3430 73948 12053 198 637 59% 7 215 1%
c [  1.34  4 31 13 23 3430 73948 12053 198 637 43% 13 215 1%
c
c  seconds   switched    conflicts     irredundant variables
c         MB   reductions      redundant      trail   remaining
c          level    restarts         binary       glue
c
c I  1.34  4 31 13 23 3430 73948 12053 198 637 43% 13 215 1%
c -  1.39  4 32 13 24 3432 76742 10127 198 637 42% 13 215 1%
c s  1.46  5 31 13 24 3435 81518 14714 198 635 42% 13 215 1%
c e  1.46  5 31 13 24 3435 81518 14714 162 904 42% 13 196 1%
c s  1.46  5 31 13 24 3435 81518 14714 162 822 42% 13 196 1%
c e  1.46  5 31 13 24 3435 81518 14714 159 849 42% 13 194 1%
c !  1.46  5 31 13 24 3435 81518 14714 159 849 42% 13 194 1%
c -  1.46  5 30 13 25 3435 81641 6857 159 849 42% 13 194 1%
c u  1.48  5 30 13 25 3435 82028 7226 159 849 42% 13 194 1%
c v  1.48  5 30 13 25 3435 82028 7226 159 849 42% 13 194 1%
c w  1.49  5 30 13 25 3435 82028 7253 159 822 42% 13 194 1%
c -  1.55  4 29 13 26 3436 86641 7054 159 822 42% 13 194 1%
c ]  1.60  4 28 14 26 3439 89748 10021 159 822 42% 13 194 1%
c {  1.60  5 34 14 26 3439 89748 10021 159 822 59% 7 194 1%
c -  1.63  4 34 14 27 3538 91740 8223 159 822 59% 7 194 1%
c -  1.73  4 33 14 28 3769 96938 10111 159 822 60% 7 194 1%
c u  1.75  5 32 14 28 3784 97691 10814 159 822 60% 7 194 1%
c v  1.75  5 32 14 28 3784 97691 10814 159 822 60% 7 194 1%
c w  1.76  5 32 14 28 3784 97691 10818 159 818 60% 7 194 1%
c -  1.87  4 31 14 29 4222 102230 11514 159 818 59% 7 194 1%
c
c  seconds   switched    conflicts      irredundant variables
c         MB   reductions       redundant      trail  remaining
c          level    restarts          binary      glue
c
c }  1.91  4 31 15 29 4341 104464 13622 159 818 59% 7 194 1%
c [  1.91  4 28 15 29 4341 104464 13622 159 818 42% 13 194 1%
c B  1.91  4 28 15 29 4341 104464 13622 159 818 42% 13 194 1%
c -  1.96  5 28 15 30 4343 107616 11493 159 818 42% 13 194 1%
c -  2.04  4 28 15 31 4346 113093 10035 159 818 41% 13 194 1%
c u  2.07  4 28 15 31 4347 114782 11603 159 818 41% 13 194 1%
c v  2.08  4 28 15 31 4347 114782 11603 159 818 41% 13 194 1%
c w  2.09  5 28 15 31 4347 114782 11605 159 816 41% 13 194 1%
c -  2.15  4 27 15 32 4349 118660 9285 159 816 41% 13 194 1%
c s  2.15  5 27 15 32 4349 119052 9652 159 815 41% 13 194 1%
c e  2.15  5 27 15 32 4349 119052 9652 157 824 41% 13 193 1%
c s  2.15  5 27 15 32 4349 119052 9652 157 813 41% 13 193 1%
c -  2.23  5 26 15 33 4353 124316 9578 157 813 41% 13 193 1%
c ]  2.24  5 26 16 33 4353 125084 10313 157 813 41% 13 193 1%
c {  2.24  5 31 16 33 4353 125084 10313 157 813 59% 7 193 1%
c -  2.34  5 30 16 34 4641 130060 11515 157 813 58% 7 193 1%
c u  2.42  5 29 16 34 4866 133330 14648 157 813 58% 7 193 1%
c v  2.43  5 29 16 34 4866 133330 14648 157 813 58% 7 193 1%
c w  2.43  5 29 16 34 4866 133330 14648 157 813 58% 7 193 1%
c -  2.51  5 29 16 35 5130 135890 13355 157 813 57% 7 193 1%
c
c  seconds   switched    conflicts      irredundant variables
c         MB   reductions       redundant      trail  remaining
c          level    restarts          binary      glue
c
c -  2.67  5 28 16 36 5667 141806 14485 157 813 57% 7 193 1%
c }  2.71  4 28 17 36 5799 143423 16033 157 813 57% 7 193 1%
c [  2.71  4 26 17 36 5799 143423 16033 157 813 41% 13 193 1%
c W  2.72  4 26 17 36 5799 143423 16033 157 813 41% 13 193 1%
c -  2.79  5 26 17 37 5802 147806 14085 157 813 41% 13 193 1%
c u  2.90  5 26 17 37 5805 153338 19283 157 813 41% 13 193 1%
c v  2.91  5 26 17 37 5805 153338 19283 157 813 41% 13 193 1%
c -  2.93  5 25 17 38 5805 153888 12429 157 813 41% 13 193 1%
c -  3.03  5 25 17 39 5808 160052 11703 157 813 40% 13 193 1%
c -  3.13  5 24 17 40 5812 166296 11904 157 813 40% 13 193 1%
c O  3.15  5 24 17 40 5812 167651 13211 157 813 40% 13 193 1%
c ]  3.19  5 24 18 40 5813 170251 15751 157 813 39% 13 193 1%
c {  3.19  5 28 18 40 5813 170251 15751 157 813 57% 7 193 1%
c -  3.25  5 28 18 41 5846 172620 13094 157 813 56% 7 193 1%
c u  3.31  5 27 18 41 5858 174859 15268 157 813 56% 7 193 1%
c v  3.32  5 27 18 41 5858 174859 15268 157 813 56% 7 193 1%
c w  3.33  5 27 18 41 5858 174859 15269 157 812 56% 7 193 1%
c -  3.43  5 26 18 42 5889 179023 15445 157 812 56% 7 193 1%
c -  3.57  5 25 18 43 5944 185503 17005 157 812 55% 7 193 1%
c -  3.74  5 24 18 44 6113 192060 18139 157 812 54% 7 193 1%
c
c  seconds   switched    conflicts      irredundant variables
c         MB   reductions       redundant      trail  remaining
c          level    restarts          binary      glue
c
c }  3.75  5 24 19 44 6113 192596 18664 157 812 54% 7 193 1%
c [  3.75  5 24 19 44 6113 192596 18664 157 812 39% 13 193 1%
c B  3.80  5 23 19 44 6115 195392 21282 157 812 40% 13 193 1%
c u  3.86  6 23 19 44 6116 197902 23594 157 812 40% 12 193 1%
c v  3.88  6 23 19 44 6116 197902 23594 157 812 40% 12 193 1%
c -  3.90  5 23 19 45 6117 198693 17635 157 812 40% 12 193 1%
c -  4.02  6 23 19 46 6119 205401 15630 157 812 39% 12 193 1%
c -  4.13  5 23 19 47 6124 212184 14527 157 812 39% 12 193 1%
c -  4.25  5 22 19 48 6126 219040 14510 157 812 39% 12 193 1%
c u  4.31  5 22 19 48 6127 222491 17702 157 812 38% 12 193 1%
c v  4.32  5 22 19 48 6127 222491 17702 157 812 38% 12 193 1%
c -  4.38  5 22 19 49 6127 225968 14379 157 812 38% 12 193 1%
c ]  4.38  5 22 20 49 6127 225985 14396 157 812 38% 12 193 1%
c {  4.38  5 24 20 49 6127 225985 14396 157 812 54% 7 193 1%
c -  4.59  5 23 20 50 6966 232968 16632 157 812 54% 7 193 1%
c -  4.83  5 23 20 51 7903 240039 18770 157 812 53% 7 193 1%
c -  5.06  6 22 20 52 8590 247180 19912 157 812 52% 7 193 1%
c u  5.13  6 22 20 52 8673 248645 21300 157 812 52% 7 193 1%
c v  5.15  6 22 20 52 8673 248645 21300 157 812 52% 7 193 1%
c w  5.15  6 22 20 52 8673 248645 21301 157 811 52% 7 193 1%
c
c  seconds   switched    conflicts      irredundant variables
c         MB   reductions       redundant      trail  remaining
c          level    restarts          binary      glue
c
c }  5.29  6 22 21 52 8963 252727 25208 157 811 51% 7 193 1%
c [  5.29  6 22 21 52 8963 252727 25208 157 811 38% 12 193 1%
c W  5.29  6 22 21 52 8963 252727 25208 157 811 38% 12 193 1%
c -  5.33  6 22 21 53 8964 254392 20737 157 811 38% 12 193 1%
c -  5.46  6 22 21 54 8969 261672 19215 157 811 38% 12 193 1%
c -  5.60  6 22 21 55 8972 269022 17291 157 811 38% 12 193 1%
c u  5.73  6 22 21 55 8976 276374 24224 157 811 38% 12 193 1%
c v  5.74  6 22 21 55 8976 276374 24224 157 811 38% 12 193 1%
c w  5.75  6 22 21 55 8976 276374 24224 157 811 38% 12 193 1%
c -  5.76  5 22 21 56 8976 276439 16907 157 811 38% 12 193 1%
c -  5.91  6 22 21 57 8977 283923 17040 157 811 38% 12 193 1%
c I  5.98  5 21 21 57 8978 288078 20870 157 811 37% 12 193 1%
c -  6.03  6 22 21 58 8980 291475 16871 157 811 37% 12 193 1%
c -  6.18  5 22 21 59 8984 299092 16514 157 811 38% 13 193 1%
c ]  6.27  5 22 22 59 8987 304820 22015 157 811 38% 13 193 1%
c {  6.27  6 22 22 59 8987 304820 22015 157 811 51% 7 193 1%
c u  6.32  6 22 22 59 9147 305704 22814 157 811 51% 7 193 1%
c v  6.33  6 22 22 59 9147 305704 22814 157 811 51% 7 193 1%
c -  6.38  6 22 22 60 9412 306773 16328 157 811 51% 7 193 1%
c -  6.68  5 22 22 61 11070 314520 17011 157 811 50% 8 193 1%
c
c  seconds   switched     conflicts      irredundant variables
c         MB   reductions        redundant      trail  remaining
c          level    restarts           binary      glue
c
c -  6.98  6 23 22 62 12594 322330 17343 157 811 48% 9 193 1%
c -  7.27  6 23 22 63 14070 330205 17804 157 811 47% 9 193 1%
c }  7.50  6 23 23 63 15270 336337 23497 157 811 46% 9 193 1%
c [  7.50  6 22 23 63 15270 336337 23497 157 811 38% 13 193 1%
c B  7.50  6 22 23 63 15270 336337 23497 157 811 38% 13 193 1%
c u  7.54  6 22 23 63 15270 336652 23776 157 811 38% 13 193 1%
c v  7.57  6 22 23 63 15270 336652 23776 157 811 38% 13 193 1%
c w  7.58  6 22 23 63 15270 336652 23776 157 811 38% 13 193 1%
c -  7.61  6 22 23 64 15271 338142 18251 157 811 38% 13 193 1%
c -  7.77  6 22 23 65 15276 346143 18263 157 811 38% 13 193 1%
c -  7.91  6 22 23 66 15280 354205 17402 157 811 37% 13 193 1%
c -  8.06  6 21 23 67 15284 362329 18255 157 811 37% 13 193 1%
c u  8.21  6 21 23 67 15284 369237 24804 157 811 37% 13 193 1%
c v  8.22  6 21 23 67 15284 369237 24804 157 811 37% 13 193 1%
c -  8.27  6 21 23 68 15284 370515 18848 157 811 37% 13 193 1%
c -  8.43  6 21 23 69 15290 378762 19059 157 811 37% 13 193 1%
c W  8.45  5 21 23 69 15291 380049 20293 157 811 37% 13 193 1%
c -  8.58  6 21 23 70 15294 387068 18664 157 811 37% 13 193 1%
c -  8.75  6 21 23 71 15298 395434 18449 157 811 37% 13 193 1%
c u  8.93  6 21 23 71 15299 403468 25822 157 811 37% 13 193 1%
c
c  seconds   switched     conflicts      irredundant variables
c         MB   reductions        redundant      trail   remaining
c          level    restarts           binary       glue
c
c v  8.94  6 21 23 71 15299 403468 25822 157 811 37% 13 193 1%
c -  8.97  6 21 23 72 15299 403860 18675 157 811 37% 13 193 1%
c ]  9.00  5 21 24 72 15300 405871 20514 157 811 37% 13 193 1%
c {  9.00  5 23 24 72 15300 405871 20514 157 811 46% 9 193 1%
c -  9.14  6 23 24 73 15321 412345 20566 157 811 46% 9 193 1%
c -  9.34  6 22 24 74 15437 420889 22458 157 811 45% 9 193 1%
c -  9.55  6 22 24 75 15561 429492 23468 157 811 45% 9 193 1%
c -  9.79  7 22 24 76 15689 438153 24293 157 811 45% 9 193 1%
c u  9.85  6 22 24 76 15701 439361 25461 157 811 45% 9 193 1%
c v  9.87  7 22 24 76 15701 439361 25461 157 811 45% 9 193 1%
c }  9.97  6 22 25 76 15814 442548 28524 157 811 45% 9 193 1%
c [  9.97  6 21 25 76 15814 442548 28524 157 811 37% 13 193 1%
c O  9.98  6 21 25 76 15814 442548 28524 157 811 37% 13 193 1%
c - 10.07  6 21 25 77 15817 446871 24083 157 811 37% 13 193 1%
c - 10.25  6 21 25 78 15821 455645 22752 157 811 37% 13 193 1%
c - 10.43  6 20 25 79 15827 464476 21993 157 811 37% 13 193 1%
c - 10.63  7 20 25 80 15828 473364 22453 157 811 37% 12 193 1%
c u 10.73  6 20 25 80 15828 476935 25721 157 811 37% 12 193 1%
c v 10.75  7 20 25 80 15828 476935 25721 157 811 37% 12 193 1%
c - 10.89  6 19 25 81 15832 482308 22983 157 811 37% 12 193 1%
c
c  seconds   switched     conflicts      irredundant variables
c         MB   reductions        redundant      trail   remaining
c          level    restarts           binary       glue
c
c ] 10.95  6 19 26 81 15835 485904 26434 157 811 37% 12 193 1%
c { 10.95  6 22 26 81 15835 485904 26434 157 811 45% 9 193 1%
c - 11.08  7 21 26 82 15895 491310 23699 157 811 45% 9 193 1%
c - 11.31  7 21 26 83 16040 500365 24880 157 811 45% 9 193 1%
c - 11.55  7 21 26 84 16197 509475 26543 157 811 45% 9 193 1%
c u 11.78  7 21 26 84 16408 516190 32915 157 811 45% 9 193 1%
c v 11.81  8 21 26 84 16408 516190 32915 157 811 45% 9 193 1%
c - 11.92  7 21 26 85 16480 518640 27411 157 811 44% 9 193 1%
c - 12.16  7 20 26 86 16562 527859 28465 157 811 44% 9 193 1%
c } 12.17  7 20 27 86 16574 528123 28726 157 811 44% 9 193 1%
c [ 12.17  7 19 27 86 16574 528123 28726 157 811 37% 12 193 1%
c B 12.17  7 19 27 86 16574 528123 28726 157 811 37% 12 193 1%
c - 12.36  7 20 27 87 16580 537132 26807 157 811 37% 12 193 1%
c - 12.57  7 20 27 88 16585 546459 23489 157 811 37% 12 193 1%
c - 12.76  7 20 27 89 16588 555839 22829 157 811 37% 12 193 1%
c u 12.81  7 20 27 89 16588 557154 24079 157 811 37% 12 193 1%
c v 12.83  7 20 27 89 16588 557154 24079 157 811 37% 12 193 1%
c - 13.02  7 20 27 90 16591 565275 22752 157 811 37% 12 193 1%
c - 13.21  7 20 27 91 16595 574763 23075 157 811 37% 12 193 1%
c - 13.42  7 20 27 92 16602 584303 23003 157 811 37% 13 193 1%
c
c  seconds   switched     conflicts      irredundant variables
c         MB   reductions        redundant      trail   remaining
c          level    restarts           binary       glue
c
c ] 13.44  6 20 28 92 16602 585298 23957 157 811 37% 12 193 1%
c { 13.44  6 20 28 92 16602 585298 23957 157 811 44% 9 193 1%
c - 13.68  7 20 28 93 16855 593894 25711 157 811 44% 8 193 1%
c u 13.86  8 20 28 93 16947 599834 31379 157 811 44% 8 193 1%
c v 13.89  8 20 28 93 16947 599834 31379 157 811 44% 8 193 1%
c - 14.04  7 20 28 94 17091 603538 28606 157 811 44% 8 193 1%
c - 14.36  7 20 28 95 17468 613234 29811 157 811 44% 8 193 1%
c - 14.68  7 19 28 96 17771 622980 30426 157 811 43% 8 193 1%
c - 15.00  7 19 28 97 18111 632777 31413 157 811 43% 8 193 1%
c } 15.02  7 19 29 97 18111 633436 32017 157 811 43% 8 193 1%
c [ 15.02  7 20 29 97 18111 633436 32017 157 811 37% 12 193 1%
c W 15.06  7 20 29 97 18111 633436 32017 157 811 37% 12 193 1%
c - 15.29  8 20 29 98 18117 642626 29632 157 811 36% 12 193 1%
c u 15.36  7 20 29 98 18117 644240 31053 157 811 36% 12 193 1%
c v 15.39  8 20 29 98 18117 644240 31053 157 811 36% 12 193 1%
c - 15.60  7 20 29 99 18122 652526 26995 157 811 36% 12 193 1%
c - 15.83  7 19 29 100 18125 662475 26372 157 811 36% 12 193 1%
c - 16.04  7 19 29 101 18128 672478 26084 157 811 35% 12 193 1%
c - 16.27  7 19 29 102 18133 682528 26421 157 811 35% 12 193 1%
c u 16.48  8 19 29 102 18138 690381 33897 157 811 35% 12 193 1%
c
c  seconds   switched      conflicts      irredundant variables
c         MB   reductions         redundant      trail   remaining
c          level     restarts           binary       glue
c
c v 16.50  8 19 29 102 18138 690381 33897 157 811 35% 12 193 1%
c - 16.58  7 19 29 103 18139 692627 26463 157 811 35% 12 193 1%
c I 16.65  7 19 29 103 18140 695991 29492 157 811 35% 12 193 1%
c ] 16.73  7 19 30 103 18140 700999 34115 157 811 35% 12 193 1%
c { 16.73  7 19 30 103 18140 700999 34115 157 811 43% 8 193 1%
c - 16.81  7 19 30 104 18230 702780 26114 157 811 43% 8 193 1%
c - 17.11  7 19 30 105 18607 712979 29253 158 811 42% 8 193 1%
c - 17.46  8 18 30 106 19158 723227 31772 158 811 42% 8 193 1%
c - 17.80  8 18 30 107 19648 733524 32614 158 811 42% 8 193 1%
c u 18.01  7 18 30 107 19801 738275 37162 170 811 42% 8 193 1%
c v 18.05  7 18 30 107 19801 738275 37158 174 811 42% 8 193 1%
c t 18.06  8 18 30 107 19801 738275 37158 158 811 42% 8 193 1%
c - 18.27  7 18 30 108 20077 743868 33898 158 811 42% 8 193 1%
c - 18.69  8 18 30 109 20688 754260 34274 158 811 41% 8 193 1%
c } 18.73  7 18 31 109 20771 755433 35404 158 811 41% 8 193 1%
c [ 18.73  7 19 31 109 20771 755433 35404 158 811 35% 12 193 1%
c B 18.91  8 19 31 109 20776 763673 42989 158 811 35% 12 193 1%
c - 18.94  8 19 31 110 20777 764700 32332 158 811 35% 12 193 1%
c - 19.21  7 20 31 111 20782 775188 30053 158 811 35% 12 193 1%
c - 19.45  8 20 31 112 20785 785725 28811 158 811 35% 12 193 1%
c
c  seconds   switched      conflicts      irredundant variables
c         MB   reductions         redundant      trail   remaining
c          level     restarts           binary       glue
c
c u 19.53  8 20 31 112 20785 787946 30953 158 811 35% 12 193 1%
c v 19.57  7 20 31 112 20785 787946 30951 160 811 35% 12 193 1%
c t 19.58  8 20 31 112 20785 787946 30951 158 811 35% 12 193 1%
c - 19.79  8 20 31 113 20790 796309 27974 158 811 35% 13 193 1%
c - 20.03  8 20 31 114 20795 806939 28276 158 811 35% 13 193 1%
c - 20.26  8 20 31 115 20800 817617 28596 158 811 34% 13 193 1%
c - 20.50  8 20 31 116 20801 828341 29391 158 811 34% 13 193 1%
c W 20.69  8 19 31 116 20801 836648 37107 158 811 34% 12 193 1%
c - 20.76  7 19 31 117 20801 839111 30617 158 811 34% 12 193 1%
c u 20.80  7 19 31 117 20801 839396 30877 167 811 34% 12 193 1%
c v 20.83  7 19 31 117 20801 839396 30828 216 811 34% 12 193 1%
c t 20.84  8 19 31 117 20801 839396 30828 158 811 34% 12 193 1%
c ] 20.89  7 19 32 117 20801 841530 32777 158 811 34% 12 193 1%
c { 20.89  7 18 32 117 20801 841530 32777 158 811 41% 8 193 1%
c - 21.17  7 18 32 118 21065 849927 33214 158 811 41% 8 193 1%
c - 21.57  8 18 32 119 21734 860789 35192 158 811 41% 8 193 1%
c - 22.00  8 18 32 120 22317 871697 36360 158 811 40% 8 193 1%
c - 22.42  8 17 32 121 22922 882651 36993 158 811 40% 8 193 1%
c u 22.87  8 17 32 121 23639 892627 46477 164 811 40% 8 193 1%
c v 22.92  9 17 32 121 23639 892627 46477 164 811 40% 8 193 1%
c
c  seconds   switched      conflicts      irredundant variables
c         MB   reductions         redundant      trail  remaining
c          level     restarts           binary      glue
c
c t 22.93  9 17 32 121 23639 892627 46477 158 811 40% 8 193 1%
c - 22.99  7 17 32 122 23704 893651 37258 158 811 40% 8 193 1%
c } 23.34  8 17 33 122 24304 902634 45716 158 811 39% 8 193 1%
c [ 23.34  8 19 33 122 24304 902634 45716 158 811 34% 12 193 1%
c - 23.41  9 19 33 123 24305 904699 37233 158 811 34% 12 193 1%
c O 23.65  8 19 33 123 24310 915078 46755 158 811 34% 12 193 1%
c - 23.68  8 19 33 124 24310 915792 34833 158 811 34% 12 193 1%
c - 23.97  8 19 33 125 24317 926927 32547 158 811 34% 12 193 1%
c - 24.25  8 19 33 126 24319 938107 31765 158 811 34% 12 193 1%
c u 24.55  8 19 33 126 24325 947657 40772 165 811 34% 12 193 1%
c v 24.59  8 19 33 126 24325 947657 40771 166 811 34% 12 193 1%
c t 24.60  8 19 33 126 24325 947657 40771 158 811 34% 12 193 1%
c - 24.66  8 19 33 127 24325 949331 31682 158 811 34% 12 193 1%
c - 24.96  8 18 33 128 24332 960600 31886 158 811 34% 12 193 1%
c - 25.23  8 18 33 129 24333 971913 32375 158 811 33% 12 193 1%
c - 25.50  7 18 33 130 24334 983270 32653 158 811 33% 12 193 1%
c - 25.77  8 17 33 131 24337 994671 33913 158 811 32% 11 193 1%
c ] 25.86  8 17 34 131 24340 998015 37095 158 811 32% 11 193 1%
c { 25.86  8 17 34 131 24340 998015 37095 158 811 39% 8 193 1%
c u 26.09  8 17 34 131 24368 1004484 43346 163 811 39% 8 193 1%
c
c  seconds   switched       conflicts      irredundant variables
c         MB   reductions          redundant      trail  remaining
c          level     restarts            binary      glue
c
c v 26.13  8 17 34 131 24368 1004484 43339 170 811 39% 8 193 1%
c t 26.15  8 17 34 131 24368 1004484 43339 159 811 39% 8 193 1%
c - 26.21  8 17 34 132 24370 1006117 36984 159 811 39% 8 193 1%
c - 26.54  9 16 34 133 24386 1017606 40573 161 811 38% 8 193 1%
c - 26.90  9 15 34 134 24428 1029138 42496 165 811 38% 8 193 1%
c - 27.30  8 15 34 135 24511 1040714 42588 166 811 38% 8 193 1%
c i 27.65  8 14 34 135 24543 1051505 52984 180 811 37% 7 192 1%
c - 27.68  8 14 34 136 24545 1052333 39398 157 811 37% 7 192 1%
c u 28.08  8 14 34 136 24559 1063143 49689 191 807 37% 7 192 1%
c v 28.14  8 14 34 136 24559 1063143 49606 274 807 37% 7 192 1%
c t 28.15  9 14 34 136 24559 1063143 49606 158 807 37% 7 192 1%
c - 28.19  9 14 34 137 24561 1063994 41738 158 807 37% 7 192 1%
c } 28.28  8 14 35 137 24581 1066164 43809 158 807 37% 7 192 1%
c [ 28.28  9 17 35 137 24581 1066164 43809 158 807 32% 11 192 1%
c B 28.28  9 17 35 137 24581 1066164 43809 158 807 32% 11 192 1%
c - 28.52  9 18 35 138 24587 1075700 39562 158 807 32% 11 192 1%
c - 28.84  8 18 35 139 24593 1087447 34648 158 807 32% 12 192 1%
c - 29.13  8 18 35 140 24595 1099236 32528 158 807 32% 12 192 1%
c - 29.42  9 18 35 141 24602 1111069 31874 158 807 32% 12 192 1%
c - 29.72  9 18 35 142 24609 1122943 32125 158 807 32% 12 192 1%
c
c  seconds   switched       conflicts      irredundant variables
c         MB   reductions          redundant      trail   remaining
c          level     restarts            binary       glue
c
c u 29.78  8 18 35 142 24609 1123540 32680 160 807 32% 12 192 1%
c v 29.82  8 18 35 142 24609 1123540 32662 178 807 32% 12 192 1%
c t 29.83  8 18 35 142 24609 1123540 32662 158 807 32% 12 192 1%
c - 30.11  9 17 35 143 24610 1134860 32900 158 807 32% 12 192 1%
c - 30.41  9 17 35 144 24611 1146818 33384 158 807 32% 11 192 1%
c e 30.45  6 17 35 144 24611 1148173 34660 156 825 32% 11 191 1%
c s 30.45  6 17 35 144 24611 1148173 34660 156 812 32% 11 191 1%
c W 30.67  7 17 35 144 24614 1155965 41888 156 812 32% 11 191 1%
c ] 30.72  8 17 36 144 24615 1157804 43641 156 812 32% 11 191 1%
c { 30.72  8 14 36 144 24615 1157804 43641 156 812 37% 7 191 1%
c - 30.78  9 14 36 145 24725 1158819 34421 156 812 37% 7 191 1%
c - 31.29  9 14 36 146 26051 1170861 37218 156 812 37% 7 191 1%
c i 31.72  8 14 36 146 26824 1182335 48193 171 812 36% 7 190 1%
c - 31.76  8 14 36 147 26851 1182944 34976 157 812 36% 7 190 1%
c u 31.92  8 14 36 147 27072 1185766 37661 174 802 36% 7 190 1%
c v 31.97  8 14 36 147 27072 1185766 37638 197 802 36% 7 190 1%
c w 31.98  9 14 36 147 27072 1185766 37640 197 800 36% 7 190 1%
c t 31.98  9 14 36 147 27072 1185766 37640 157 800 36% 7 190 1%
c - 32.40  9 14 36 148 28031 1195069 37665 157 800 36% 7 190 1%
c - 32.89  8 14 36 149 28873 1207234 39635 157 800 36% 8 190 1%
c
c  seconds   switched       conflicts      irredundant variables
c         MB   reductions          redundant      trail  remaining
c          level     restarts            binary      glue
c
c i 33.14  9 14 36 149 29153 1214247 46368 168 800 35% 7 189 1%
c - 33.35  8 14 36 150 29537 1219441 34744 152 800 35% 7 189 1%
c - 33.85  9 14 36 151 30446 1231689 37246 154 800 35% 8 189 1%
c } 33.90  8 14 37 151 30526 1233361 38794 154 800 35% 8 189 1%
c [ 33.90  8 17 37 151 30526 1233361 38794 154 800 32% 11 189 1%
c - 34.22  8 16 37 152 30532 1243977 38309 154 800 31% 11 189 1%
c u 34.46  8 16 37 152 30535 1249681 43640 170 795 31% 11 189 1%
c v 34.53  9 16 37 152 30535 1249681 43617 193 795 31% 11 189 1%
c t 34.55  9 16 37 152 30535 1249681 43617 155 795 31% 11 189 1%
c I 34.61  9 16 37 152 30536 1251679 45462 155 795 31% 11 189 1%
c - 34.76  9 16 37 153 30539 1256305 37389 155 795 31% 11 189 1%
c - 35.13  8 16 37 154 30541 1268674 37846 155 795 30% 11 189 1%
c - 35.53  9 15 37 155 30547 1281083 38958 155 795 30% 10 189 1%
c i 35.68  9 15 37 155 30551 1285956 43555 163 795 30% 10 187 1%
c i 35.74  8 15 37 155 30552 1287585 45113 169 795 30% 10 184 1%
c e 35.76  6 15 37 155 30553 1287967 45460 135 782 30% 10 175 1%
c s 35.76  6 15 37 155 30553 1287967 45460 135 760 30% 10 175 1%
c i 35.78  8 15 37 155 30553 1288665 24894 145 760 30% 10 170 1%
c i 35.78  8 15 37 155 30553 1288885 25065 154 760 30% 10 168 1%
c i 35.79  8 15 37 155 30553 1288960 25132 160 760 30% 10 165 1%
c
c  seconds   switched       conflicts      irredundant variables
c         MB   reductions          redundant      trail   remaining
c          level     restarts            binary       glue
c
c i 35.79  8 15 37 155 30553 1288982 25148 163 760 30% 10 163 1%
c i 35.79  8 15 37 155 30553 1288994 25155 166 760 30% 10 158 1%
c i 35.79  8 15 37 155 30553 1288997 25155 168 760 30% 10 157 1%
c i 35.79  8 15 37 155 30553 1289001 25155 169 760 30% 10 156 1%
c i 35.79  8 15 37 155 30553 1289002 25155 169 760 30% 10 155 1%
c ] 35.79  8 15 37 155 30553 1289004 25155 169 760 30% 10 151 1%
c 0 35.79  8 14 37 155 30553 1289004 25155 169 760 35% 8 151 1%
c
c ---- [ result ] ------------------------------------------------------------
c
s UNSATISFIABLE
c
c ---- [ profiling ] ---------------------------------------------------------
c
c          33.30   93.04 %  search
c          16.96   47.39 %  focused
c          16.34   45.65 %  stable
c           2.49    6.95 %  simplify
c           2.37    6.63 %  probe
c           2.16    6.03 %  vivify
c           0.59    1.64 %  reduce
c           0.16    0.46 %  substitute
c           0.07    0.20 %  walking
c           0.04    0.12 %  eliminate
c           0.03    0.08 %  sweep
c           0.02    0.05 %  transitive
c           0.00    0.01 %  subsume
c           0.00    0.01 %  backbone
c           0.00    0.01 %  parse
c           0.00    0.00 %  warmup
c =============================================
c          35.79  100.00 %  total
c
c ---- [ statistics ] --------------------------------------------------------
c
c conflicts:                          1289004            36015.17 per second
c decisions:                          2338758                1.81 per conflict
c eliminated:                             442                3 %  variables
c jumped_reasons:                      136155                1 %  propagations
c propagations:                      22105356           617630    per second
c queue_decisions:                    1260630               54 %  decision
c random_decisions:                    138749                6 %  decision
c random_sequences:                       374             3447    interval
c reductions:                             155             8316    interval
c rephased:                                27            47741    interval
c restarts:                             30553               42.19 interval
c score_decisions:                     939379               40 %  decision
c strengthened:                           445                2 %  checks
c subsumed:                               273                1 %  checks
c switched:                                37            34838    interval
c vivified:                              9359               10 %  checks
c vivify_checks:                        90625             2108    per vivify
c vivify_units:                             0                0 %  variables
c walk_improved:                            9              100 %  walks
c walks:                                    9           143223    interval
c
c ---- [ resources ] ---------------------------------------------------------
c
c maximum-resident-set-size:         10702848 bytes         10 MB
c process-time:                            36s              35.79 seconds
c
c ---- [ shutting down ] -----------------------------------------------------
c
c exit 20
